data/lp_files/q3/51_8.lp
\ Model foo
\ LP format - for model browsing. Use MPS format to capture full model detail.
Minimize
  z
Subject To
 allocateEach[1]: x[1,1] + x[2,1] + x[3,1] = 1
 allocateEach[2]: x[1,2] + x[2,2] + x[3,2] = 1
 allocateEach[3]: x[1,3] + x[2,3] + x[3,3] = 1
 allocateEach[4]: x[1,4] + x[2,4] + x[3,4] = 1
 allocateEach[5]: x[1,5] + x[2,5] + x[3,5] = 1
 allocateEach[6]: x[1,6] + x[2,6] + x[3,6] = 1
 allocateEach[7]: x[1,7] + x[2,7] + x[3,7] = 1
 allocateEach[8]: x[1,8] + x[2,8] + x[3,8] = 1
 allocateEach[9]: x[1,9] + x[2,9] + x[3,9] = 1
 allocateEach[10]: x[1,10] + x[2,10] + x[3,10] = 1
 allocateEach[11]: x[1,11] + x[2,11] + x[3,11] = 1
 allocateAllCash: cashProportion[1] + cashProportion[2] + cashProportion[3]
   = 1
 findWorstP[1,2]: z + 0.1260835303388495 cashProportion[1]
   - 0.1260835303388495 cashProportion[2] + 0.0567848699763593 x[1,1]
   + 0.0437194641449961 x[1,2] + 0.1384239558707644 x[1,3]
   + 0.1479432624113476 x[1,4] + 0.1055634357762018 x[1,5]
   + 0.0861780929866036 x[1,6] + 0.0335539795114263 x[1,7]
   + 0.0201103230890465 x[1,8] + 0.1506382978723405 x[1,9]
   + 0.0371000788022065 x[1,10] + 0.0539007092198582 x[1,11]
   - 0.0567848699763593 x[2,1] - 0.0437194641449961 x[2,2]
   - 0.1384239558707644 x[2,3] - 0.1479432624113476 x[2,4]
   - 0.1055634357762018 x[2,5] - 0.0861780929866036 x[2,6]
   - 0.0335539795114263 x[2,7] - 0.0201103230890465 x[2,8]
   - 0.1506382978723405 x[2,9] - 0.0371000788022065 x[2,10]
   - 0.0539007092198582 x[2,11] >= 0
 findWorstP[1,3]: z + 0.1260835303388495 cashProportion[1]
   - 0.1260835303388495 cashProportion[3] + 0.0567848699763593 x[1,1]
   + 0.0437194641449961 x[1,2] + 0.1384239558707644 x[1,3]
   + 0.1479432624113476 x[1,4] + 0.1055634357762018 x[1,5]
   + 0.0861780929866036 x[1,6] + 0.0335539795114263 x[1,7]
   + 0.0201103230890465 x[1,8] + 0.1506382978723405 x[1,9]
   + 0.0371000788022065 x[1,10] + 0.0539007092198582 x[1,11]
   - 0.0567848699763593 x[3,1] - 0.0437194641449961 x[3,2]
   - 0.1384239558707644 x[3,3] - 0.1479432624113476 x[3,4]
   - 0.1055634357762018 x[3,5] - 0.0861780929866036 x[3,6]
   - 0.0335539795114263 x[3,7] - 0.0201103230890465 x[3,8]
   - 0.1506382978723405 x[3,9] - 0.0371000788022065 x[3,10]
   - 0.0539007092198582 x[3,11] >= 0
 findWorstP[2,1]: z - 0.1144328422257188 cashProportion[1]
   + 0.1144328422257188 cashProportion[2] - 0.1079387784294093 x[1,1]
   - 0.0411815190959806 x[1,2] - 0.0228436561293091 x[1,3]
   - 0.0854098126162209 x[1,4] - 0.1274495780288943 x[1,5]
   - 0.0359319124588757 x[1,6] - 0.1377628379344872 x[1,7]
   - 0.1291088542411672 x[1,8] - 0.0811471892433129 x[1,9]
   - 0.1038478043198398 x[1,10] - 0.0129452152767844 x[1,11]
   + 0.1079387784294093 x[2,1] + 0.0411815190959806 x[2,2]
   + 0.0228436561293091 x[2,3] + 0.0854098126162209 x[2,4]
   + 0.1274495780288943 x[2,5] + 0.0359319124588757 x[2,6]
   + 0.1377628379344872 x[2,7] + 0.1291088542411672 x[2,8]
   + 0.0811471892433129 x[2,9] + 0.1038478043198398 x[2,10]
   + 0.0129452152767844 x[2,11] >= 0
 findWorstP[2,3]: z + 0.1144328422257188 cashProportion[2]
   - 0.1144328422257188 cashProportion[3] + 0.1079387784294093 x[2,1]
   + 0.0411815190959806 x[2,2] + 0.0228436561293091 x[2,3]
   + 0.0854098126162209 x[2,4] + 0.1274495780288943 x[2,5]
   + 0.0359319124588757 x[2,6] + 0.1377628379344872 x[2,7]
   + 0.1291088542411672 x[2,8] + 0.0811471892433129 x[2,9]
   + 0.1038478043198398 x[2,10] + 0.0129452152767844 x[2,11]
   - 0.1079387784294093 x[3,1] - 0.0411815190959806 x[3,2]
   - 0.0228436561293091 x[3,3] - 0.0854098126162209 x[3,4]
   - 0.1274495780288943 x[3,5] - 0.0359319124588757 x[3,6]
   - 0.1377628379344872 x[3,7] - 0.1291088542411672 x[3,8]
   - 0.0811471892433129 x[3,9] - 0.1038478043198398 x[3,10]
   - 0.0129452152767844 x[3,11] >= 0
 findWorstP[3,1]: z - 0.1158060827144946 cashProportion[1]
   + 0.1158060827144946 cashProportion[3] - 0.1091906602394291 x[1,1]
   - 0.00289515206786236 x[1,2] - 0.0483635152936408 x[1,3]
   - 0.0312386908122349 x[1,4] - 0.0615219814420753 x[1,5]
   - 0.0572661079023176 x[1,6] - 0.0835975159595258 x[1,7]
   - 0.1383593173231424 x[1,8] - 0.0819183277601656 x[1,9]
   - 0.127386690985944 x[1,10] - 0.1424559574991677 x[1,11]
   + 0.1091906602394291 x[3,1] + 0.00289515206786236 x[3,2]
   + 0.0483635152936408 x[3,3] + 0.0312386908122349 x[3,4]
   + 0.0615219814420753 x[3,5] + 0.0572661079023176 x[3,6]
   + 0.0835975159595258 x[3,7] + 0.1383593173231424 x[3,8]
   + 0.0819183277601656 x[3,9] + 0.127386690985944 x[3,10]
   + 0.1424559574991677 x[3,11] >= 0
 findWorstP[3,2]: z - 0.1158060827144946 cashProportion[2]
   + 0.1158060827144946 cashProportion[3] - 0.1091906602394291 x[2,1]
   - 0.00289515206786236 x[2,2] - 0.0483635152936408 x[2,3]
   - 0.0312386908122349 x[2,4] - 0.0615219814420753 x[2,5]
   - 0.0572661079023176 x[2,6] - 0.0835975159595258 x[2,7]
   - 0.1383593173231424 x[2,8] - 0.0819183277601656 x[2,9]
   - 0.127386690985944 x[2,10] - 0.1424559574991677 x[2,11]
   + 0.1091906602394291 x[3,1] + 0.00289515206786236 x[3,2]
   + 0.0483635152936408 x[3,3] + 0.0312386908122349 x[3,4]
   + 0.0615219814420753 x[3,5] + 0.0572661079023176 x[3,6]
   + 0.0835975159595258 x[3,7] + 0.1383593173231424 x[3,8]
   + 0.0819183277601656 x[3,9] + 0.127386690985944 x[3,10]
   + 0.1424559574991677 x[3,11] >= 0
Bounds
 z <= 1
 -infinity <= cashProportion[1] <= 1
 -infinity <= cashProportion[2] <= 1
 -infinity <= cashProportion[3] <= 1
Binaries
 x[1,1] x[1,2] x[1,3] x[1,4] x[1,5] x[1,6] x[1,7] x[1,8] x[1,9] x[1,10]
 x[1,11] x[2,1] x[2,2] x[2,3] x[2,4] x[2,5] x[2,6] x[2,7] x[2,8] x[2,9]
 x[2,10] x[2,11] x[3,1] x[3,2] x[3,3] x[3,4] x[3,5] x[3,6] x[3,7] x[3,8]
 x[3,9] x[3,10] x[3,11]
End
