data/mps_files/q3/51_8.mps
NAME foo
ROWS
 N  OBJ
 E  allocateEach[1]
 E  allocateEach[2]
 E  allocateEach[3]
 E  allocateEach[4]
 E  allocateEach[5]
 E  allocateEach[6]
 E  allocateEach[7]
 E  allocateEach[8]
 E  allocateEach[9]
 E  allocateEach[10]
 E  allocateEach[11]
 E  allocateAllCash
 G  findWorstP[1,2]
 G  findWorstP[1,3]
 G  findWorstP[2,1]
 G  findWorstP[2,3]
 G  findWorstP[3,1]
 G  findWorstP[3,2]
COLUMNS
    z         OBJ       1
    z         findWorstP[1,2]  1
    z         findWorstP[1,3]  1
    z         findWorstP[2,1]  1
    z         findWorstP[2,3]  1
    z         findWorstP[3,1]  1
    z         findWorstP[3,2]  1
    cashProportion[1]  allocateAllCash  1
    cashProportion[1]  findWorstP[1,2]  1.2608353033884953e-01
    cashProportion[1]  findWorstP[1,3]  1.2608353033884953e-01
    cashProportion[1]  findWorstP[2,1]  -1.1443284222571884e-01
    cashProportion[1]  findWorstP[3,1]  -1.1580608271449462e-01
    cashProportion[2]  allocateAllCash  1
    cashProportion[2]  findWorstP[1,2]  -1.2608353033884953e-01
    cashProportion[2]  findWorstP[2,1]  1.1443284222571884e-01
    cashProportion[2]  findWorstP[2,3]  1.1443284222571884e-01
    cashProportion[2]  findWorstP[3,2]  -1.1580608271449462e-01
    cashProportion[3]  allocateAllCash  1
    cashProportion[3]  findWorstP[1,3]  -1.2608353033884953e-01
    cashProportion[3]  findWorstP[2,3]  -1.1443284222571884e-01
    cashProportion[3]  findWorstP[3,1]  1.1580608271449462e-01
    cashProportion[3]  findWorstP[3,2]  1.1580608271449462e-01
    MARKER    'MARKER'                 'INTORG'
    x[1,1]    allocateEach[1]  1
    x[1,1]    findWorstP[1,2]  5.6784869976359349e-02
    x[1,1]    findWorstP[1,3]  5.6784869976359349e-02
    x[1,1]    findWorstP[2,1]  -1.0793877842940927e-01
    x[1,1]    findWorstP[3,1]  -1.0919066023942908e-01
    x[1,2]    allocateEach[2]  1
    x[1,2]    findWorstP[1,2]  4.3719464144996063e-02
    x[1,2]    findWorstP[1,3]  4.3719464144996063e-02
    x[1,2]    findWorstP[2,1]  -4.1181519095980557e-02
    x[1,2]    findWorstP[3,1]  -2.8951520678623648e-03
    x[1,3]    allocateEach[3]  1
    x[1,3]    findWorstP[1,2]  1.3842395587076439e-01
    x[1,3]    findWorstP[1,3]  1.3842395587076439e-01
    x[1,3]    findWorstP[2,1]  -2.2843656129309119e-02
    x[1,3]    findWorstP[3,1]  -4.8363515293640809e-02
    x[1,4]    allocateEach[4]  1
    x[1,4]    findWorstP[1,2]  1.4794326241134756e-01
    x[1,4]    findWorstP[1,3]  1.4794326241134756e-01
    x[1,4]    findWorstP[2,1]  -8.5409812616220868e-02
    x[1,4]    findWorstP[3,1]  -3.1238690812234918e-02
    x[1,5]    allocateEach[5]  1
    x[1,5]    findWorstP[1,2]  1.0556343577620175e-01
    x[1,5]    findWorstP[1,3]  1.0556343577620175e-01
    x[1,5]    findWorstP[2,1]  -1.2744957802889434e-01
    x[1,5]    findWorstP[3,1]  -6.1521981442075255e-02
    x[1,6]    allocateEach[6]  1
    x[1,6]    findWorstP[1,2]  8.6178092986603630e-02
    x[1,6]    findWorstP[1,3]  8.6178092986603630e-02
    x[1,6]    findWorstP[2,1]  -3.5931912458875705e-02
    x[1,6]    findWorstP[3,1]  -5.7266107902317578e-02
    x[1,7]    allocateEach[7]  1
    x[1,7]    findWorstP[1,2]  3.3553979511426330e-02
    x[1,7]    findWorstP[1,3]  3.3553979511426330e-02
    x[1,7]    findWorstP[2,1]  -1.3776283793448724e-01
    x[1,7]    findWorstP[3,1]  -8.3597515959525789e-02
    x[1,8]    allocateEach[8]  1
    x[1,8]    findWorstP[1,2]  2.0110323089046495e-02
    x[1,8]    findWorstP[1,3]  2.0110323089046495e-02
    x[1,8]    findWorstP[2,1]  -1.2910885424116725e-01
    x[1,8]    findWorstP[3,1]  -1.3835931732314241e-01
    x[1,9]    allocateEach[9]  1
    x[1,9]    findWorstP[1,2]  1.5063829787234045e-01
    x[1,9]    findWorstP[1,3]  1.5063829787234045e-01
    x[1,9]    findWorstP[2,1]  -8.1147189243312851e-02
    x[1,9]    findWorstP[3,1]  -8.1918327760165610e-02
    x[1,10]   allocateEach[10]  1
    x[1,10]   findWorstP[1,2]  3.7100078802206470e-02
    x[1,10]   findWorstP[1,3]  3.7100078802206470e-02
    x[1,10]   findWorstP[2,1]  -1.0384780431983982e-01
    x[1,10]   findWorstP[3,1]  -1.2738669098594405e-01
    x[1,11]   allocateEach[11]  1
    x[1,11]   findWorstP[1,2]  5.3900709219858171e-02
    x[1,11]   findWorstP[1,3]  5.3900709219858171e-02
    x[1,11]   findWorstP[2,1]  -1.2945215276784440e-02
    x[1,11]   findWorstP[3,1]  -1.4245595749916767e-01
    x[2,1]    allocateEach[1]  1
    x[2,1]    findWorstP[1,2]  -5.6784869976359349e-02
    x[2,1]    findWorstP[2,1]  1.0793877842940927e-01
    x[2,1]    findWorstP[2,3]  1.0793877842940927e-01
    x[2,1]    findWorstP[3,2]  -1.0919066023942908e-01
    x[2,2]    allocateEach[2]  1
    x[2,2]    findWorstP[1,2]  -4.3719464144996063e-02
    x[2,2]    findWorstP[2,1]  4.1181519095980557e-02
    x[2,2]    findWorstP[2,3]  4.1181519095980557e-02
    x[2,2]    findWorstP[3,2]  -2.8951520678623648e-03
    x[2,3]    allocateEach[3]  1
    x[2,3]    findWorstP[1,2]  -1.3842395587076439e-01
    x[2,3]    findWorstP[2,1]  2.2843656129309119e-02
    x[2,3]    findWorstP[2,3]  2.2843656129309119e-02
    x[2,3]    findWorstP[3,2]  -4.8363515293640809e-02
    x[2,4]    allocateEach[4]  1
    x[2,4]    findWorstP[1,2]  -1.4794326241134756e-01
    x[2,4]    findWorstP[2,1]  8.5409812616220868e-02
    x[2,4]    findWorstP[2,3]  8.5409812616220868e-02
    x[2,4]    findWorstP[3,2]  -3.1238690812234918e-02
    x[2,5]    allocateEach[5]  1
    x[2,5]    findWorstP[1,2]  -1.0556343577620175e-01
    x[2,5]    findWorstP[2,1]  1.2744957802889434e-01
    x[2,5]    findWorstP[2,3]  1.2744957802889434e-01
    x[2,5]    findWorstP[3,2]  -6.1521981442075255e-02
    x[2,6]    allocateEach[6]  1
    x[2,6]    findWorstP[1,2]  -8.6178092986603630e-02
    x[2,6]    findWorstP[2,1]  3.5931912458875705e-02
    x[2,6]    findWorstP[2,3]  3.5931912458875705e-02
    x[2,6]    findWorstP[3,2]  -5.7266107902317578e-02
    x[2,7]    allocateEach[7]  1
    x[2,7]    findWorstP[1,2]  -3.3553979511426330e-02
    x[2,7]    findWorstP[2,1]  1.3776283793448724e-01
    x[2,7]    findWorstP[2,3]  1.3776283793448724e-01
    x[2,7]    findWorstP[3,2]  -8.3597515959525789e-02
    x[2,8]    allocateEach[8]  1
    x[2,8]    findWorstP[1,2]  -2.0110323089046495e-02
    x[2,8]    findWorstP[2,1]  1.2910885424116725e-01
    x[2,8]    findWorstP[2,3]  1.2910885424116725e-01
    x[2,8]    findWorstP[3,2]  -1.3835931732314241e-01
    x[2,9]    allocateEach[9]  1
    x[2,9]    findWorstP[1,2]  -1.5063829787234045e-01
    x[2,9]    findWorstP[2,1]  8.1147189243312851e-02
    x[2,9]    findWorstP[2,3]  8.1147189243312851e-02
    x[2,9]    findWorstP[3,2]  -8.1918327760165610e-02
    x[2,10]   allocateEach[10]  1
    x[2,10]   findWorstP[1,2]  -3.7100078802206470e-02
    x[2,10]   findWorstP[2,1]  1.0384780431983982e-01
    x[2,10]   findWorstP[2,3]  1.0384780431983982e-01
    x[2,10]   findWorstP[3,2]  -1.2738669098594405e-01
    x[2,11]   allocateEach[11]  1
    x[2,11]   findWorstP[1,2]  -5.3900709219858171e-02
    x[2,11]   findWorstP[2,1]  1.2945215276784440e-02
    x[2,11]   findWorstP[2,3]  1.2945215276784440e-02
    x[2,11]   findWorstP[3,2]  -1.4245595749916767e-01
    x[3,1]    allocateEach[1]  1
    x[3,1]    findWorstP[1,3]  -5.6784869976359349e-02
    x[3,1]    findWorstP[2,3]  -1.0793877842940927e-01
    x[3,1]    findWorstP[3,1]  1.0919066023942908e-01
    x[3,1]    findWorstP[3,2]  1.0919066023942908e-01
    x[3,2]    allocateEach[2]  1
    x[3,2]    findWorstP[1,3]  -4.3719464144996063e-02
    x[3,2]    findWorstP[2,3]  -4.1181519095980557e-02
    x[3,2]    findWorstP[3,1]  2.8951520678623648e-03
    x[3,2]    findWorstP[3,2]  2.8951520678623648e-03
    x[3,3]    allocateEach[3]  1
    x[3,3]    findWorstP[1,3]  -1.3842395587076439e-01
    x[3,3]    findWorstP[2,3]  -2.2843656129309119e-02
    x[3,3]    findWorstP[3,1]  4.8363515293640809e-02
    x[3,3]    findWorstP[3,2]  4.8363515293640809e-02
    x[3,4]    allocateEach[4]  1
    x[3,4]    findWorstP[1,3]  -1.4794326241134756e-01
    x[3,4]    findWorstP[2,3]  -8.5409812616220868e-02
    x[3,4]    findWorstP[3,1]  3.1238690812234918e-02
    x[3,4]    findWorstP[3,2]  3.1238690812234918e-02
    x[3,5]    allocateEach[5]  1
    x[3,5]    findWorstP[1,3]  -1.0556343577620175e-01
    x[3,5]    findWorstP[2,3]  -1.2744957802889434e-01
    x[3,5]    findWorstP[3,1]  6.1521981442075255e-02
    x[3,5]    findWorstP[3,2]  6.1521981442075255e-02
    x[3,6]    allocateEach[6]  1
    x[3,6]    findWorstP[1,3]  -8.6178092986603630e-02
    x[3,6]    findWorstP[2,3]  -3.5931912458875705e-02
    x[3,6]    findWorstP[3,1]  5.7266107902317578e-02
    x[3,6]    findWorstP[3,2]  5.7266107902317578e-02
    x[3,7]    allocateEach[7]  1
    x[3,7]    findWorstP[1,3]  -3.3553979511426330e-02
    x[3,7]    findWorstP[2,3]  -1.3776283793448724e-01
    x[3,7]    findWorstP[3,1]  8.3597515959525789e-02
    x[3,7]    findWorstP[3,2]  8.3597515959525789e-02
    x[3,8]    allocateEach[8]  1
    x[3,8]    findWorstP[1,3]  -2.0110323089046495e-02
    x[3,8]    findWorstP[2,3]  -1.2910885424116725e-01
    x[3,8]    findWorstP[3,1]  1.3835931732314241e-01
    x[3,8]    findWorstP[3,2]  1.3835931732314241e-01
    x[3,9]    allocateEach[9]  1
    x[3,9]    findWorstP[1,3]  -1.5063829787234045e-01
    x[3,9]    findWorstP[2,3]  -8.1147189243312851e-02
    x[3,9]    findWorstP[3,1]  8.1918327760165610e-02
    x[3,9]    findWorstP[3,2]  8.1918327760165610e-02
    x[3,10]   allocateEach[10]  1
    x[3,10]   findWorstP[1,3]  -3.7100078802206470e-02
    x[3,10]   findWorstP[2,3]  -1.0384780431983982e-01
    x[3,10]   findWorstP[3,1]  1.2738669098594405e-01
    x[3,10]   findWorstP[3,2]  1.2738669098594405e-01
    x[3,11]   allocateEach[11]  1
    x[3,11]   findWorstP[1,3]  -5.3900709219858171e-02
    x[3,11]   findWorstP[2,3]  -1.2945215276784440e-02
    x[3,11]   findWorstP[3,1]  1.4245595749916767e-01
    x[3,11]   findWorstP[3,2]  1.4245595749916767e-01
    MARKER    'MARKER'                 'INTEND'
RHS
    RHS1      allocateEach[1]  1
    RHS1      allocateEach[2]  1
    RHS1      allocateEach[3]  1
    RHS1      allocateEach[4]  1
    RHS1      allocateEach[5]  1
    RHS1      allocateEach[6]  1
    RHS1      allocateEach[7]  1
    RHS1      allocateEach[8]  1
    RHS1      allocateEach[9]  1
    RHS1      allocateEach[10]  1
    RHS1      allocateEach[11]  1
    RHS1      allocateAllCash  1
BOUNDS
 UP BND1      z         1
 MI BND1      cashProportion[1]
 UP BND1      cashProportion[1]  1
 MI BND1      cashProportion[2]
 UP BND1      cashProportion[2]  1
 MI BND1      cashProportion[3]
 UP BND1      cashProportion[3]  1
 BV BND1      x[1,1]  
 BV BND1      x[1,2]  
 BV BND1      x[1,3]  
 BV BND1      x[1,4]  
 BV BND1      x[1,5]  
 BV BND1      x[1,6]  
 BV BND1      x[1,7]  
 BV BND1      x[1,8]  
 BV BND1      x[1,9]  
 BV BND1      x[1,10] 
 BV BND1      x[1,11] 
 BV BND1      x[2,1]  
 BV BND1      x[2,2]  
 BV BND1      x[2,3]  
 BV BND1      x[2,4]  
 BV BND1      x[2,5]  
 BV BND1      x[2,6]  
 BV BND1      x[2,7]  
 BV BND1      x[2,8]  
 BV BND1      x[2,9]  
 BV BND1      x[2,10] 
 BV BND1      x[2,11] 
 BV BND1      x[3,1]  
 BV BND1      x[3,2]  
 BV BND1      x[3,3]  
 BV BND1      x[3,4]  
 BV BND1      x[3,5]  
 BV BND1      x[3,6]  
 BV BND1      x[3,7]  
 BV BND1      x[3,8]  
 BV BND1      x[3,9]  
 BV BND1      x[3,10] 
 BV BND1      x[3,11] 
ENDATA
